(declare-sort Loc 0)
(declare-const l0 Loc)
(declare-const l1 Loc)
(declare-const l2 Loc)
(declare-const l3 Loc)
(declare-const l4 Loc)
(declare-const l5 Loc)
(declare-const l6 Loc)
(declare-const l7 Loc)
(declare-const l8 Loc)
(declare-const l9 Loc)
(declare-const l10 Loc)
(declare-const l11 Loc)
(declare-const l12 Loc)
(declare-const l13 Loc)
(declare-const l14 Loc)
(declare-const l15 Loc)
(declare-const l16 Loc)
(declare-const l17 Loc)
(declare-const l18 Loc)
(declare-const l19 Loc)
(declare-const l20 Loc)
(declare-const l21 Loc)
(declare-const l22 Loc)
(declare-const l23 Loc)
(declare-const l24 Loc)
(declare-const l25 Loc)
(declare-const l26 Loc)
(declare-const l27 Loc)
(declare-const l28 Loc)
(assert (distinct l0 l1 l2 l3 l4 l5 l6 l7 l8 l9 l10 l11 l12 l13 l14 l15 l16 l17 l18 l19 l20 l21 l22 l23 l24 l25 l26 l27 l28))

(define-fun cfg_init ( (pc Loc) (src Loc) (rel Bool) ) Bool
  (and (= pc src) rel))

(define-fun cfg_trans2 ( (pc Loc) (src Loc)
                         (pc1 Loc) (dst Loc)
                         (rel Bool) ) Bool
  (and (= pc src) (= pc1 dst) rel))

(define-fun cfg_trans3 ( (pc Loc) (exit Loc)
                         (pc1 Loc) (call Loc)
                         (pc2 Loc) (return Loc)
                         (rel Bool) ) Bool
  (and (= pc exit) (= pc1 call) (= pc2 return) rel))

(define-fun init_main ( (pc^0 Loc) (__const_30^0 Int) (b^0 Int) (c^0 Int) (dd^0 Int) (f^0 Int) (g^0 Int) (i^0 Int) (iter^0 Int) (k^0 Int) (l^0 Int) (m^0 Int) (n^0 Int) (p^0 Int) (r^0 Int) (s^0 Int) (tmp^0 Int) (tmp___0^0 Int) (tmp___1^0 Int) (tmp___2^0 Int) (tmp___3^0 Int) (tmp___4^0 Int) (tmp___5^0 Int) ) Bool
  (cfg_init pc^0 l28 true))

(define-fun next_main (
                 (pc^0 Loc) (__const_30^0 Int) (b^0 Int) (c^0 Int) (dd^0 Int) (f^0 Int) (g^0 Int) (i^0 Int) (iter^0 Int) (k^0 Int) (l^0 Int) (m^0 Int) (n^0 Int) (p^0 Int) (r^0 Int) (s^0 Int) (tmp^0 Int) (tmp___0^0 Int) (tmp___1^0 Int) (tmp___2^0 Int) (tmp___3^0 Int) (tmp___4^0 Int) (tmp___5^0 Int)
                 (pc^post Loc) (__const_30^post Int) (b^post Int) (c^post Int) (dd^post Int) (f^post Int) (g^post Int) (i^post Int) (iter^post Int) (k^post Int) (l^post Int) (m^post Int) (n^post Int) (p^post Int) (r^post Int) (s^post Int) (tmp^post Int) (tmp___0^post Int) (tmp___1^post Int) (tmp___2^post Int) (tmp___3^post Int) (tmp___4^post Int) (tmp___5^post Int)
             ) Bool
  (or
    (cfg_trans2 pc^0 l0 pc^post l1 (and (and (and (and (and (and (and (and (and (and (and (and (and (and (and (and (and (and (and (and (and (= __const_30^0 __const_30^post) (= b^0 b^post)) (= c^0 c^post)) (= dd^0 dd^post)) (= f^0 f^post)) (= g^0 g^post)) (= i^0 i^post)) (= iter^0 iter^post)) (= k^0 k^post)) (= l^0 l^post)) (= m^0 m^post)) (= n^0 n^post)) (= p^0 p^post)) (= r^0 r^post)) (= s^0 s^post)) (= tmp^0 tmp^post)) (= tmp___0^0 tmp___0^post)) (= tmp___1^0 tmp___1^post)) (= tmp___2^0 tmp___2^post)) (= tmp___3^0 tmp___3^post)) (= tmp___4^0 tmp___4^post)) (= tmp___5^0 tmp___5^post)))
    (cfg_trans2 pc^0 l2 pc^post l0 (and (and (and (and (and (and (and (and (and (and (and (and (and (and (and (and (and (and (and (and (and (and (and (<= (+ 0 m^0) (+ 0 l^0)) (<= (+ 0 l^0) (+ 0 m^0))) (= l^post (+ 1 l^0))) (= __const_30^0 __const_30^post)) (= b^0 b^post)) (= c^0 c^post)) (= dd^0 dd^post)) (= f^0 f^post)) (= g^0 g^post)) (= i^0 i^post)) (= iter^0 iter^post)) (= k^0 k^post)) (= m^0 m^post)) (= n^0 n^post)) (= p^0 p^post)) (= r^0 r^post)) (= s^0 s^post)) (= tmp^0 tmp^post)) (= tmp___0^0 tmp___0^post)) (= tmp___1^0 tmp___1^post)) (= tmp___2^0 tmp___2^post)) (= tmp___3^0 tmp___3^post)) (= tmp___4^0 tmp___4^post)) (= tmp___5^0 tmp___5^post)))
    (cfg_trans2 pc^0 l2 pc^post l3 (and (and (and (and (and (and (and (and (and (and (and (and (and (and (and (and (and (and (and (and (and (and (<= (+ 1 l^0) (+ 0 m^0)) (= __const_30^0 __const_30^post)) (= b^0 b^post)) (= c^0 c^post)) (= dd^0 dd^post)) (= f^0 f^post)) (= g^0 g^post)) (= i^0 i^post)) (= iter^0 iter^post)) (= k^0 k^post)) (= l^0 l^post)) (= m^0 m^post)) (= n^0 n^post)) (= p^0 p^post)) (= r^0 r^post)) (= s^0 s^post)) (= tmp^0 tmp^post)) (= tmp___0^0 tmp___0^post)) (= tmp___1^0 tmp___1^post)) (= tmp___2^0 tmp___2^post)) (= tmp___3^0 tmp___3^post)) (= tmp___4^0 tmp___4^post)) (= tmp___5^0 tmp___5^post)))
    (cfg_trans2 pc^0 l2 pc^post l3 (and (and (and (and (and (and (and (and (and (and (and (and (and (and (and (and (and (and (and (and (and (and (<= (+ 1 m^0) (+ 0 l^0)) (= __const_30^0 __const_30^post)) (= b^0 b^post)) (= c^0 c^post)) (= dd^0 dd^post)) (= f^0 f^post)) (= g^0 g^post)) (= i^0 i^post)) (= iter^0 iter^post)) (= k^0 k^post)) (= l^0 l^post)) (= m^0 m^post)) (= n^0 n^post)) (= p^0 p^post)) (= r^0 r^post)) (= s^0 s^post)) (= tmp^0 tmp^post)) (= tmp___0^0 tmp___0^post)) (= tmp___1^0 tmp___1^post)) (= tmp___2^0 tmp___2^post)) (= tmp___3^0 tmp___3^post)) (= tmp___4^0 tmp___4^post)) (= tmp___5^0 tmp___5^post)))
    (cfg_trans2 pc^0 l4 pc^post l2 (and (and (and (and (and (and (and (and (and (and (and (and (and (and (and (and (and (and (and (and (and (= __const_30^0 __const_30^post) (= b^0 b^post)) (= c^0 c^post)) (= dd^0 dd^post)) (= f^0 f^post)) (= g^0 g^post)) (= i^0 i^post)) (= iter^0 iter^post)) (= k^0 k^post)) (= l^0 l^post)) (= m^0 m^post)) (= n^0 n^post)) (= p^0 p^post)) (= r^0 r^post)) (= s^0 s^post)) (= tmp^0 tmp^post)) (= tmp___0^0 tmp___0^post)) (= tmp___1^0 tmp___1^post)) (= tmp___2^0 tmp___2^post)) (= tmp___3^0 tmp___3^post)) (= tmp___4^0 tmp___4^post)) (= tmp___5^0 tmp___5^post)))
    (cfg_trans2 pc^0 l5 pc^post l4 (and (and (and (and (and (and (and (and (and (and (and (and (and (and (and (and (and (and (and (and (and (and (<= (+ 1 i^0) (+ 0 l^0)) (= __const_30^0 __const_30^post)) (= b^0 b^post)) (= c^0 c^post)) (= dd^0 dd^post)) (= f^0 f^post)) (= g^0 g^post)) (= i^0 i^post)) (= iter^0 iter^post)) (= k^0 k^post)) (= l^0 l^post)) (= m^0 m^post)) (= n^0 n^post)) (= p^0 p^post)) (= r^0 r^post)) (= s^0 s^post)) (= tmp^0 tmp^post)) (= tmp___0^0 tmp___0^post)) (= tmp___1^0 tmp___1^post)) (= tmp___2^0 tmp___2^post)) (= tmp___3^0 tmp___3^post)) (= tmp___4^0 tmp___4^post)) (= tmp___5^0 tmp___5^post)))
    (cfg_trans2 pc^0 l5 pc^post l2 (and (and (and (and (and (and (and (and (and (and (and (and (and (and (and (and (and (and (and (and (and (and (<= (+ 0 l^0) (+ 0 i^0)) (= __const_30^0 __const_30^post)) (= b^0 b^post)) (= c^0 c^post)) (= dd^0 dd^post)) (= f^0 f^post)) (= g^0 g^post)) (= i^0 i^post)) (= iter^0 iter^post)) (= k^0 k^post)) (= l^0 l^post)) (= m^0 m^post)) (= n^0 n^post)) (= p^0 p^post)) (= r^0 r^post)) (= s^0 s^post)) (= tmp^0 tmp^post)) (= tmp___0^0 tmp___0^post)) (= tmp___1^0 tmp___1^post)) (= tmp___2^0 tmp___2^post)) (= tmp___3^0 tmp___3^post)) (= tmp___4^0 tmp___4^post)) (= tmp___5^0 tmp___5^post)))
    (cfg_trans2 pc^0 l6 pc^post l4 (and (and (and (and (and (and (and (and (and (and (and (and (and (and (and (and (and (and (and (and (and (and (<= 1 (+ 0 r^0)) (= __const_30^0 __const_30^post)) (= b^0 b^post)) (= c^0 c^post)) (= dd^0 dd^post)) (= f^0 f^post)) (= g^0 g^post)) (= i^0 i^post)) (= iter^0 iter^post)) (= k^0 k^post)) (= l^0 l^post)) (= m^0 m^post)) (= n^0 n^post)) (= p^0 p^post)) (= r^0 r^post)) (= s^0 s^post)) (= tmp^0 tmp^post)) (= tmp___0^0 tmp___0^post)) (= tmp___1^0 tmp___1^post)) (= tmp___2^0 tmp___2^post)) (= tmp___3^0 tmp___3^post)) (= tmp___4^0 tmp___4^post)) (= tmp___5^0 tmp___5^post)))
    (cfg_trans2 pc^0 l6 pc^post l4 (and (and (and (and (and (and (and (and (and (and (and (and (and (and (and (and (and (and (and (and (and (and (<= (+ 1 r^0) 0) (= __const_30^0 __const_30^post)) (= b^0 b^post)) (= c^0 c^post)) (= dd^0 dd^post)) (= f^0 f^post)) (= g^0 g^post)) (= i^0 i^post)) (= iter^0 iter^post)) (= k^0 k^post)) (= l^0 l^post)) (= m^0 m^post)) (= n^0 n^post)) (= p^0 p^post)) (= r^0 r^post)) (= s^0 s^post)) (= tmp^0 tmp^post)) (= tmp___0^0 tmp___0^post)) (= tmp___1^0 tmp___1^post)) (= tmp___2^0 tmp___2^post)) (= tmp___3^0 tmp___3^post)) (= tmp___4^0 tmp___4^post)) (= tmp___5^0 tmp___5^post)))
    (cfg_trans2 pc^0 l6 pc^post l5 (and (and (and (and (and (and (and (and (and (and (and (and (and (and (and (and (and (and (and (and (and (and (and (<= (+ 0 r^0) 0) (<= 0 (+ 0 r^0))) (= __const_30^0 __const_30^post)) (= b^0 b^post)) (= c^0 c^post)) (= dd^0 dd^post)) (= f^0 f^post)) (= g^0 g^post)) (= i^0 i^post)) (= iter^0 iter^post)) (= k^0 k^post)) (= l^0 l^post)) (= m^0 m^post)) (= n^0 n^post)) (= p^0 p^post)) (= r^0 r^post)) (= s^0 s^post)) (= tmp^0 tmp^post)) (= tmp___0^0 tmp___0^post)) (= tmp___1^0 tmp___1^post)) (= tmp___2^0 tmp___2^post)) (= tmp___3^0 tmp___3^post)) (= tmp___4^0 tmp___4^post)) (= tmp___5^0 tmp___5^post)))
    (cfg_trans2 pc^0 l7 pc^post l6 (and (and (and (and (and (and (and (and (and (and (and (and (and (and (and (and (and (and (and (and (and (= __const_30^0 __const_30^post) (= b^0 b^post)) (= c^0 c^post)) (= dd^0 dd^post)) (= f^0 f^post)) (= g^0 g^post)) (= i^0 i^post)) (= iter^0 iter^post)) (= k^0 k^post)) (= l^0 l^post)) (= m^0 m^post)) (= n^0 n^post)) (= p^0 p^post)) (= r^0 r^post)) (= s^0 s^post)) (= tmp^0 tmp^post)) (= tmp___0^0 tmp___0^post)) (= tmp___1^0 tmp___1^post)) (= tmp___2^0 tmp___2^post)) (= tmp___3^0 tmp___3^post)) (= tmp___4^0 tmp___4^post)) (= tmp___5^0 tmp___5^post)))
    (cfg_trans2 pc^0 l8 pc^post l9 (and (and (and (and (and (and (and (and (and (and (and (and (and (and (and (and (and (and (and (and (and (and (<= (+ 1 n^0) (+ 0 k^0)) (= i^post (+ -1 i^0))) (= __const_30^0 __const_30^post)) (= b^0 b^post)) (= c^0 c^post)) (= dd^0 dd^post)) (= f^0 f^post)) (= g^0 g^post)) (= iter^0 iter^post)) (= k^0 k^post)) (= l^0 l^post)) (= m^0 m^post)) (= n^0 n^post)) (= p^0 p^post)) (= r^0 r^post)) (= s^0 s^post)) (= tmp^0 tmp^post)) (= tmp___0^0 tmp___0^post)) (= tmp___1^0 tmp___1^post)) (= tmp___2^0 tmp___2^post)) (= tmp___3^0 tmp___3^post)) (= tmp___4^0 tmp___4^post)) (= tmp___5^0 tmp___5^post)))
    (cfg_trans2 pc^0 l8 pc^post l10 (and (and (and (and (and (and (and (and (and (and (and (and (and (and (and (and (and (and (and (and (and (and (<= (+ 0 k^0) (+ 0 n^0)) (= f^post f^post)) (= k^post (+ 1 k^0))) (= __const_30^0 __const_30^post)) (= b^0 b^post)) (= c^0 c^post)) (= dd^0 dd^post)) (= g^0 g^post)) (= i^0 i^post)) (= iter^0 iter^post)) (= l^0 l^post)) (= m^0 m^post)) (= n^0 n^post)) (= p^0 p^post)) (= r^0 r^post)) (= s^0 s^post)) (= tmp^0 tmp^post)) (= tmp___0^0 tmp___0^post)) (= tmp___1^0 tmp___1^post)) (= tmp___2^0 tmp___2^post)) (= tmp___3^0 tmp___3^post)) (= tmp___4^0 tmp___4^post)) (= tmp___5^0 tmp___5^post)))
    (cfg_trans2 pc^0 l10 pc^post l8 (and (and (and (and (and (and (and (and (and (and (and (and (and (and (and (and (and (and (and (and (and (= __const_30^0 __const_30^post) (= b^0 b^post)) (= c^0 c^post)) (= dd^0 dd^post)) (= f^0 f^post)) (= g^0 g^post)) (= i^0 i^post)) (= iter^0 iter^post)) (= k^0 k^post)) (= l^0 l^post)) (= m^0 m^post)) (= n^0 n^post)) (= p^0 p^post)) (= r^0 r^post)) (= s^0 s^post)) (= tmp^0 tmp^post)) (= tmp___0^0 tmp___0^post)) (= tmp___1^0 tmp___1^post)) (= tmp___2^0 tmp___2^post)) (= tmp___3^0 tmp___3^post)) (= tmp___4^0 tmp___4^post)) (= tmp___5^0 tmp___5^post)))
    (cfg_trans2 pc^0 l11 pc^post l10 (exists ( (g^1 Int) ) (and (and (and (and (and (and (and (and (and (and (and (and (and (and (and (and (and (and (and (and (and (and (= s^post s^post) (= c^post c^post)) (= g^1 g^1)) (= r^post r^post)) (= p^post p^post)) (= g^post g^post)) (= __const_30^0 __const_30^post)) (= b^0 b^post)) (= dd^0 dd^post)) (= f^0 f^post)) (= i^0 i^post)) (= iter^0 iter^post)) (= k^0 k^post)) (= l^0 l^post)) (= m^0 m^post)) (= n^0 n^post)) (= tmp^0 tmp^post)) (= tmp___0^0 tmp___0^post)) (= tmp___1^0 tmp___1^post)) (= tmp___2^0 tmp___2^post)) (= tmp___3^0 tmp___3^post)) (= tmp___4^0 tmp___4^post)) (= tmp___5^0 tmp___5^post))))
    (cfg_trans2 pc^0 l12 pc^post l11 (and (and (and (and (and (and (and (and (and (and (and (and (and (and (and (and (and (and (and (and (and (and (<= 1 (+ 0 r^0)) (= __const_30^0 __const_30^post)) (= b^0 b^post)) (= c^0 c^post)) (= dd^0 dd^post)) (= f^0 f^post)) (= g^0 g^post)) (= i^0 i^post)) (= iter^0 iter^post)) (= k^0 k^post)) (= l^0 l^post)) (= m^0 m^post)) (= n^0 n^post)) (= p^0 p^post)) (= r^0 r^post)) (= s^0 s^post)) (= tmp^0 tmp^post)) (= tmp___0^0 tmp___0^post)) (= tmp___1^0 tmp___1^post)) (= tmp___2^0 tmp___2^post)) (= tmp___3^0 tmp___3^post)) (= tmp___4^0 tmp___4^post)) (= tmp___5^0 tmp___5^post)))
    (cfg_trans2 pc^0 l12 pc^post l11 (and (and (and (and (and (and (and (and (and (and (and (and (and (and (and (and (and (and (and (and (and (and (<= (+ 1 r^0) 0) (= __const_30^0 __const_30^post)) (= b^0 b^post)) (= c^0 c^post)) (= dd^0 dd^post)) (= f^0 f^post)) (= g^0 g^post)) (= i^0 i^post)) (= iter^0 iter^post)) (= k^0 k^post)) (= l^0 l^post)) (= m^0 m^post)) (= n^0 n^post)) (= p^0 p^post)) (= r^0 r^post)) (= s^0 s^post)) (= tmp^0 tmp^post)) (= tmp___0^0 tmp___0^post)) (= tmp___1^0 tmp___1^post)) (= tmp___2^0 tmp___2^post)) (= tmp___3^0 tmp___3^post)) (= tmp___4^0 tmp___4^post)) (= tmp___5^0 tmp___5^post)))
    (cfg_trans2 pc^0 l12 pc^post l7 (and (and (and (and (and (and (and (and (and (and (and (and (and (and (and (and (and (and (and (and (and (and (and (<= (+ 0 r^0) 0) (<= 0 (+ 0 r^0))) (= __const_30^0 __const_30^post)) (= b^0 b^post)) (= c^0 c^post)) (= dd^0 dd^post)) (= f^0 f^post)) (= g^0 g^post)) (= i^0 i^post)) (= iter^0 iter^post)) (= k^0 k^post)) (= l^0 l^post)) (= m^0 m^post)) (= n^0 n^post)) (= p^0 p^post)) (= r^0 r^post)) (= s^0 s^post)) (= tmp^0 tmp^post)) (= tmp___0^0 tmp___0^post)) (= tmp___1^0 tmp___1^post)) (= tmp___2^0 tmp___2^post)) (= tmp___3^0 tmp___3^post)) (= tmp___4^0 tmp___4^post)) (= tmp___5^0 tmp___5^post)))
    (cfg_trans2 pc^0 l13 pc^post l7 (and (and (and (and (and (and (and (and (and (and (and (and (and (and (and (and (and (and (and (and (and (and (<= (+ 1 i^0) (+ 0 l^0)) (= __const_30^0 __const_30^post)) (= b^0 b^post)) (= c^0 c^post)) (= dd^0 dd^post)) (= f^0 f^post)) (= g^0 g^post)) (= i^0 i^post)) (= iter^0 iter^post)) (= k^0 k^post)) (= l^0 l^post)) (= m^0 m^post)) (= n^0 n^post)) (= p^0 p^post)) (= r^0 r^post)) (= s^0 s^post)) (= tmp^0 tmp^post)) (= tmp___0^0 tmp___0^post)) (= tmp___1^0 tmp___1^post)) (= tmp___2^0 tmp___2^post)) (= tmp___3^0 tmp___3^post)) (= tmp___4^0 tmp___4^post)) (= tmp___5^0 tmp___5^post)))
    (cfg_trans2 pc^0 l13 pc^post l12 (and (and (and (and (and (and (and (and (and (and (and (and (and (and (and (and (and (and (and (and (and (and (<= (+ 0 l^0) (+ 0 i^0)) (= f^post f^post)) (= b^post b^post)) (= r^post r^post)) (= __const_30^0 __const_30^post)) (= c^0 c^post)) (= dd^0 dd^post)) (= g^0 g^post)) (= i^0 i^post)) (= iter^0 iter^post)) (= k^0 k^post)) (= l^0 l^post)) (= m^0 m^post)) (= n^0 n^post)) (= p^0 p^post)) (= s^0 s^post)) (= tmp^0 tmp^post)) (= tmp___0^0 tmp___0^post)) (= tmp___1^0 tmp___1^post)) (= tmp___2^0 tmp___2^post)) (= tmp___3^0 tmp___3^post)) (= tmp___4^0 tmp___4^post)) (= tmp___5^0 tmp___5^post)))
    (cfg_trans2 pc^0 l9 pc^post l13 (and (and (and (and (and (and (and (and (and (and (and (and (and (and (and (and (and (and (and (and (and (= __const_30^0 __const_30^post) (= b^0 b^post)) (= c^0 c^post)) (= dd^0 dd^post)) (= f^0 f^post)) (= g^0 g^post)) (= i^0 i^post)) (= iter^0 iter^post)) (= k^0 k^post)) (= l^0 l^post)) (= m^0 m^post)) (= n^0 n^post)) (= p^0 p^post)) (= r^0 r^post)) (= s^0 s^post)) (= tmp^0 tmp^post)) (= tmp___0^0 tmp___0^post)) (= tmp___1^0 tmp___1^post)) (= tmp___2^0 tmp___2^post)) (= tmp___3^0 tmp___3^post)) (= tmp___4^0 tmp___4^post)) (= tmp___5^0 tmp___5^post)))
    (cfg_trans2 pc^0 l14 pc^post l9 (and (and (and (and (and (and (and (and (and (and (and (and (and (and (and (and (and (and (and (and (and (= g^post g^post) (= c^post 1)) (= s^post (+ 0 c^post))) (= p^post 0)) (= __const_30^0 __const_30^post)) (= b^0 b^post)) (= dd^0 dd^post)) (= f^0 f^post)) (= i^0 i^post)) (= iter^0 iter^post)) (= k^0 k^post)) (= l^0 l^post)) (= m^0 m^post)) (= n^0 n^post)) (= r^0 r^post)) (= tmp^0 tmp^post)) (= tmp___0^0 tmp___0^post)) (= tmp___1^0 tmp___1^post)) (= tmp___2^0 tmp___2^post)) (= tmp___3^0 tmp___3^post)) (= tmp___4^0 tmp___4^post)) (= tmp___5^0 tmp___5^post)))
    (cfg_trans2 pc^0 l15 pc^post l14 (and (and (and (and (and (and (and (and (and (and (and (and (and (and (and (and (and (and (and (and (and (and (<= (+ 1 g^0) 0) (= tmp___4^post tmp___4^post)) (= tmp___5^post (+ 0 (* -1 tmp___4^post)))) (= __const_30^0 __const_30^post)) (= b^0 b^post)) (= c^0 c^post)) (= dd^0 dd^post)) (= f^0 f^post)) (= g^0 g^post)) (= i^0 i^post)) (= iter^0 iter^post)) (= k^0 k^post)) (= l^0 l^post)) (= m^0 m^post)) (= n^0 n^post)) (= p^0 p^post)) (= r^0 r^post)) (= s^0 s^post)) (= tmp^0 tmp^post)) (= tmp___0^0 tmp___0^post)) (= tmp___1^0 tmp___1^post)) (= tmp___2^0 tmp___2^post)) (= tmp___3^0 tmp___3^post)))
    (cfg_trans2 pc^0 l15 pc^post l14 (and (and (and (and (and (and (and (and (and (and (and (and (and (and (and (and (and (and (and (and (and (and (<= 0 (+ 0 g^0)) (= tmp___3^post tmp___3^post)) (= tmp___5^post (+ 0 tmp___3^post))) (= __const_30^0 __const_30^post)) (= b^0 b^post)) (= c^0 c^post)) (= dd^0 dd^post)) (= f^0 f^post)) (= g^0 g^post)) (= i^0 i^post)) (= iter^0 iter^post)) (= k^0 k^post)) (= l^0 l^post)) (= m^0 m^post)) (= n^0 n^post)) (= p^0 p^post)) (= r^0 r^post)) (= s^0 s^post)) (= tmp^0 tmp^post)) (= tmp___0^0 tmp___0^post)) (= tmp___1^0 tmp___1^post)) (= tmp___2^0 tmp___2^post)) (= tmp___4^0 tmp___4^post)))
    (cfg_trans2 pc^0 l16 pc^post l15 (and (and (and (and (and (and (and (and (and (and (and (and (and (and (and (and (and (and (and (and (and (= g^post g^post) (= r^post r^post)) (= __const_30^0 __const_30^post)) (= b^0 b^post)) (= c^0 c^post)) (= dd^0 dd^post)) (= f^0 f^post)) (= i^0 i^post)) (= iter^0 iter^post)) (= k^0 k^post)) (= l^0 l^post)) (= m^0 m^post)) (= n^0 n^post)) (= p^0 p^post)) (= s^0 s^post)) (= tmp^0 tmp^post)) (= tmp___0^0 tmp___0^post)) (= tmp___1^0 tmp___1^post)) (= tmp___2^0 tmp___2^post)) (= tmp___3^0 tmp___3^post)) (= tmp___4^0 tmp___4^post)) (= tmp___5^0 tmp___5^post)))
    (cfg_trans2 pc^0 l17 pc^post l0 (and (and (and (and (and (and (and (and (and (and (and (and (and (and (and (and (and (and (and (and (and (and (<= (+ 1 n^0) (+ 0 i^0)) (= __const_30^0 __const_30^post)) (= b^0 b^post)) (= c^0 c^post)) (= dd^0 dd^post)) (= f^0 f^post)) (= g^0 g^post)) (= i^0 i^post)) (= iter^0 iter^post)) (= k^0 k^post)) (= l^0 l^post)) (= m^0 m^post)) (= n^0 n^post)) (= p^0 p^post)) (= r^0 r^post)) (= s^0 s^post)) (= tmp^0 tmp^post)) (= tmp___0^0 tmp___0^post)) (= tmp___1^0 tmp___1^post)) (= tmp___2^0 tmp___2^post)) (= tmp___3^0 tmp___3^post)) (= tmp___4^0 tmp___4^post)) (= tmp___5^0 tmp___5^post)))
    (cfg_trans2 pc^0 l17 pc^post l18 (and (and (and (and (and (and (and (and (and (and (and (and (and (and (and (and (and (and (and (and (and (and (<= (+ 0 i^0) (+ 0 n^0)) (= i^post (+ 1 i^0))) (= __const_30^0 __const_30^post)) (= b^0 b^post)) (= c^0 c^post)) (= dd^0 dd^post)) (= f^0 f^post)) (= g^0 g^post)) (= iter^0 iter^post)) (= k^0 k^post)) (= l^0 l^post)) (= m^0 m^post)) (= n^0 n^post)) (= p^0 p^post)) (= r^0 r^post)) (= s^0 s^post)) (= tmp^0 tmp^post)) (= tmp___0^0 tmp___0^post)) (= tmp___1^0 tmp___1^post)) (= tmp___2^0 tmp___2^post)) (= tmp___3^0 tmp___3^post)) (= tmp___4^0 tmp___4^post)) (= tmp___5^0 tmp___5^post)))
    (cfg_trans2 pc^0 l19 pc^post l16 (and (and (and (and (and (and (and (and (and (and (and (and (and (and (and (and (and (and (and (and (and (and (<= (+ 1 __const_30^0) (+ 0 tmp___2^0)) (= __const_30^0 __const_30^post)) (= b^0 b^post)) (= c^0 c^post)) (= dd^0 dd^post)) (= f^0 f^post)) (= g^0 g^post)) (= i^0 i^post)) (= iter^0 iter^post)) (= k^0 k^post)) (= l^0 l^post)) (= m^0 m^post)) (= n^0 n^post)) (= p^0 p^post)) (= r^0 r^post)) (= s^0 s^post)) (= tmp^0 tmp^post)) (= tmp___0^0 tmp___0^post)) (= tmp___1^0 tmp___1^post)) (= tmp___2^0 tmp___2^post)) (= tmp___3^0 tmp___3^post)) (= tmp___4^0 tmp___4^post)) (= tmp___5^0 tmp___5^post)))
    (cfg_trans2 pc^0 l19 pc^post l16 (and (and (and (and (and (and (and (and (and (and (and (and (and (and (and (and (and (and (and (and (and (and (<= (+ 1 tmp___2^0) (+ 0 __const_30^0)) (= __const_30^0 __const_30^post)) (= b^0 b^post)) (= c^0 c^post)) (= dd^0 dd^post)) (= f^0 f^post)) (= g^0 g^post)) (= i^0 i^post)) (= iter^0 iter^post)) (= k^0 k^post)) (= l^0 l^post)) (= m^0 m^post)) (= n^0 n^post)) (= p^0 p^post)) (= r^0 r^post)) (= s^0 s^post)) (= tmp^0 tmp^post)) (= tmp___0^0 tmp___0^post)) (= tmp___1^0 tmp___1^post)) (= tmp___2^0 tmp___2^post)) (= tmp___3^0 tmp___3^post)) (= tmp___4^0 tmp___4^post)) (= tmp___5^0 tmp___5^post)))
    (cfg_trans2 pc^0 l19 pc^post l16 (and (and (and (and (and (and (and (and (and (and (and (and (and (and (and (and (and (and (and (and (and (and (and (<= (+ 0 tmp___2^0) (+ 0 __const_30^0)) (<= (+ 0 __const_30^0) (+ 0 tmp___2^0))) (= __const_30^0 __const_30^post)) (= b^0 b^post)) (= c^0 c^post)) (= dd^0 dd^post)) (= f^0 f^post)) (= g^0 g^post)) (= i^0 i^post)) (= iter^0 iter^post)) (= k^0 k^post)) (= l^0 l^post)) (= m^0 m^post)) (= n^0 n^post)) (= p^0 p^post)) (= r^0 r^post)) (= s^0 s^post)) (= tmp^0 tmp^post)) (= tmp___0^0 tmp___0^post)) (= tmp___1^0 tmp___1^post)) (= tmp___2^0 tmp___2^post)) (= tmp___3^0 tmp___3^post)) (= tmp___4^0 tmp___4^post)) (= tmp___5^0 tmp___5^post)))
    (cfg_trans2 pc^0 l20 pc^post l19 (and (and (and (and (and (and (and (and (and (and (and (and (and (and (and (and (and (and (and (and (and (= tmp___2^post (+ 0 iter^0)) (= iter^post (+ 1 iter^0))) (= __const_30^0 __const_30^post)) (= b^0 b^post)) (= c^0 c^post)) (= dd^0 dd^post)) (= f^0 f^post)) (= g^0 g^post)) (= i^0 i^post)) (= k^0 k^post)) (= l^0 l^post)) (= m^0 m^post)) (= n^0 n^post)) (= p^0 p^post)) (= r^0 r^post)) (= s^0 s^post)) (= tmp^0 tmp^post)) (= tmp___0^0 tmp___0^post)) (= tmp___1^0 tmp___1^post)) (= tmp___3^0 tmp___3^post)) (= tmp___4^0 tmp___4^post)) (= tmp___5^0 tmp___5^post)))
    (cfg_trans2 pc^0 l21 pc^post l2 (and (and (and (and (and (and (and (and (and (and (and (and (and (and (and (and (and (and (and (and (and (and (and (<= (+ 0 m^0) (+ 0 l^0)) (<= (+ 0 l^0) (+ 0 m^0))) (= __const_30^0 __const_30^post)) (= b^0 b^post)) (= c^0 c^post)) (= dd^0 dd^post)) (= f^0 f^post)) (= g^0 g^post)) (= i^0 i^post)) (= iter^0 iter^post)) (= k^0 k^post)) (= l^0 l^post)) (= m^0 m^post)) (= n^0 n^post)) (= p^0 p^post)) (= r^0 r^post)) (= s^0 s^post)) (= tmp^0 tmp^post)) (= tmp___0^0 tmp___0^post)) (= tmp___1^0 tmp___1^post)) (= tmp___2^0 tmp___2^post)) (= tmp___3^0 tmp___3^post)) (= tmp___4^0 tmp___4^post)) (= tmp___5^0 tmp___5^post)))
    (cfg_trans2 pc^0 l21 pc^post l20 (and (and (and (and (and (and (and (and (and (and (and (and (and (and (and (and (and (and (and (and (and (and (<= (+ 1 l^0) (+ 0 m^0)) (= __const_30^0 __const_30^post)) (= b^0 b^post)) (= c^0 c^post)) (= dd^0 dd^post)) (= f^0 f^post)) (= g^0 g^post)) (= i^0 i^post)) (= iter^0 iter^post)) (= k^0 k^post)) (= l^0 l^post)) (= m^0 m^post)) (= n^0 n^post)) (= p^0 p^post)) (= r^0 r^post)) (= s^0 s^post)) (= tmp^0 tmp^post)) (= tmp___0^0 tmp___0^post)) (= tmp___1^0 tmp___1^post)) (= tmp___2^0 tmp___2^post)) (= tmp___3^0 tmp___3^post)) (= tmp___4^0 tmp___4^post)) (= tmp___5^0 tmp___5^post)))
    (cfg_trans2 pc^0 l21 pc^post l20 (and (and (and (and (and (and (and (and (and (and (and (and (and (and (and (and (and (and (and (and (and (and (<= (+ 1 m^0) (+ 0 l^0)) (= __const_30^0 __const_30^post)) (= b^0 b^post)) (= c^0 c^post)) (= dd^0 dd^post)) (= f^0 f^post)) (= g^0 g^post)) (= i^0 i^post)) (= iter^0 iter^post)) (= k^0 k^post)) (= l^0 l^post)) (= m^0 m^post)) (= n^0 n^post)) (= p^0 p^post)) (= r^0 r^post)) (= s^0 s^post)) (= tmp^0 tmp^post)) (= tmp___0^0 tmp___0^post)) (= tmp___1^0 tmp___1^post)) (= tmp___2^0 tmp___2^post)) (= tmp___3^0 tmp___3^post)) (= tmp___4^0 tmp___4^post)) (= tmp___5^0 tmp___5^post)))
    (cfg_trans2 pc^0 l22 pc^post l21 (and (and (and (and (and (and (and (and (and (and (and (and (and (and (and (and (and (and (and (and (and (= __const_30^0 __const_30^post) (= b^0 b^post)) (= c^0 c^post)) (= dd^0 dd^post)) (= f^0 f^post)) (= g^0 g^post)) (= i^0 i^post)) (= iter^0 iter^post)) (= k^0 k^post)) (= l^0 l^post)) (= m^0 m^post)) (= n^0 n^post)) (= p^0 p^post)) (= r^0 r^post)) (= s^0 s^post)) (= tmp^0 tmp^post)) (= tmp___0^0 tmp___0^post)) (= tmp___1^0 tmp___1^post)) (= tmp___2^0 tmp___2^post)) (= tmp___3^0 tmp___3^post)) (= tmp___4^0 tmp___4^post)) (= tmp___5^0 tmp___5^post)))
    (cfg_trans2 pc^0 l23 pc^post l24 (and (and (and (and (and (and (and (and (and (and (and (and (and (and (and (and (and (and (and (and (and (= m^post (+ 1 m^0)) (= __const_30^0 __const_30^post)) (= b^0 b^post)) (= c^0 c^post)) (= dd^0 dd^post)) (= f^0 f^post)) (= g^0 g^post)) (= i^0 i^post)) (= iter^0 iter^post)) (= k^0 k^post)) (= l^0 l^post)) (= n^0 n^post)) (= p^0 p^post)) (= r^0 r^post)) (= s^0 s^post)) (= tmp^0 tmp^post)) (= tmp___0^0 tmp___0^post)) (= tmp___1^0 tmp___1^post)) (= tmp___2^0 tmp___2^post)) (= tmp___3^0 tmp___3^post)) (= tmp___4^0 tmp___4^post)) (= tmp___5^0 tmp___5^post)))
    (cfg_trans2 pc^0 l25 pc^post l23 (and (and (and (and (and (and (and (and (and (and (and (and (and (and (and (and (and (and (and (and (and (and (<= (+ 1 dd^0) (+ (+ 0 dd^0) tmp___1^0)) (= __const_30^0 __const_30^post)) (= b^0 b^post)) (= c^0 c^post)) (= dd^0 dd^post)) (= f^0 f^post)) (= g^0 g^post)) (= i^0 i^post)) (= iter^0 iter^post)) (= k^0 k^post)) (= l^0 l^post)) (= m^0 m^post)) (= n^0 n^post)) (= p^0 p^post)) (= r^0 r^post)) (= s^0 s^post)) (= tmp^0 tmp^post)) (= tmp___0^0 tmp___0^post)) (= tmp___1^0 tmp___1^post)) (= tmp___2^0 tmp___2^post)) (= tmp___3^0 tmp___3^post)) (= tmp___4^0 tmp___4^post)) (= tmp___5^0 tmp___5^post)))
    (cfg_trans2 pc^0 l25 pc^post l23 (and (and (and (and (and (and (and (and (and (and (and (and (and (and (and (and (and (and (and (and (and (and (<= (+ (+ 1 dd^0) tmp___1^0) (+ 0 dd^0)) (= __const_30^0 __const_30^post)) (= b^0 b^post)) (= c^0 c^post)) (= dd^0 dd^post)) (= f^0 f^post)) (= g^0 g^post)) (= i^0 i^post)) (= iter^0 iter^post)) (= k^0 k^post)) (= l^0 l^post)) (= m^0 m^post)) (= n^0 n^post)) (= p^0 p^post)) (= r^0 r^post)) (= s^0 s^post)) (= tmp^0 tmp^post)) (= tmp___0^0 tmp___0^post)) (= tmp___1^0 tmp___1^post)) (= tmp___2^0 tmp___2^post)) (= tmp___3^0 tmp___3^post)) (= tmp___4^0 tmp___4^post)) (= tmp___5^0 tmp___5^post)))
    (cfg_trans2 pc^0 l25 pc^post l22 (and (and (and (and (and (and (and (and (and (and (and (and (and (and (and (and (and (and (and (and (and (and (and (<= (+ (+ 0 dd^0) tmp___1^0) (+ 0 dd^0)) (<= (+ 0 dd^0) (+ (+ 0 dd^0) tmp___1^0))) (= __const_30^0 __const_30^post)) (= b^0 b^post)) (= c^0 c^post)) (= dd^0 dd^post)) (= f^0 f^post)) (= g^0 g^post)) (= i^0 i^post)) (= iter^0 iter^post)) (= k^0 k^post)) (= l^0 l^post)) (= m^0 m^post)) (= n^0 n^post)) (= p^0 p^post)) (= r^0 r^post)) (= s^0 s^post)) (= tmp^0 tmp^post)) (= tmp___0^0 tmp___0^post)) (= tmp___1^0 tmp___1^post)) (= tmp___2^0 tmp___2^post)) (= tmp___3^0 tmp___3^post)) (= tmp___4^0 tmp___4^post)) (= tmp___5^0 tmp___5^post)))
    (cfg_trans2 pc^0 l18 pc^post l17 (and (and (and (and (and (and (and (and (and (and (and (and (and (and (and (and (and (and (and (and (and (= __const_30^0 __const_30^post) (= b^0 b^post)) (= c^0 c^post)) (= dd^0 dd^post)) (= f^0 f^post)) (= g^0 g^post)) (= i^0 i^post)) (= iter^0 iter^post)) (= k^0 k^post)) (= l^0 l^post)) (= m^0 m^post)) (= n^0 n^post)) (= p^0 p^post)) (= r^0 r^post)) (= s^0 s^post)) (= tmp^0 tmp^post)) (= tmp___0^0 tmp___0^post)) (= tmp___1^0 tmp___1^post)) (= tmp___2^0 tmp___2^post)) (= tmp___3^0 tmp___3^post)) (= tmp___4^0 tmp___4^post)) (= tmp___5^0 tmp___5^post)))
    (cfg_trans2 pc^0 l26 pc^post l22 (and (and (and (and (and (and (and (and (and (and (and (and (and (and (and (and (and (and (and (and (and (and (<= (+ 0 n^0) (+ 0 m^0)) (= __const_30^0 __const_30^post)) (= b^0 b^post)) (= c^0 c^post)) (= dd^0 dd^post)) (= f^0 f^post)) (= g^0 g^post)) (= i^0 i^post)) (= iter^0 iter^post)) (= k^0 k^post)) (= l^0 l^post)) (= m^0 m^post)) (= n^0 n^post)) (= p^0 p^post)) (= r^0 r^post)) (= s^0 s^post)) (= tmp^0 tmp^post)) (= tmp___0^0 tmp___0^post)) (= tmp___1^0 tmp___1^post)) (= tmp___2^0 tmp___2^post)) (= tmp___3^0 tmp___3^post)) (= tmp___4^0 tmp___4^post)) (= tmp___5^0 tmp___5^post)))
    (cfg_trans2 pc^0 l26 pc^post l25 (and (and (and (and (and (and (and (and (and (and (and (and (and (and (and (and (and (and (and (and (and (and (<= (+ 0 m^0) (+ -1 n^0)) (= tmp^post tmp^post)) (= tmp___0^post tmp___0^post)) (= dd^post (+ (+ 0 tmp^post) tmp___0^post))) (= tmp___1^post tmp___1^post)) (= __const_30^0 __const_30^post)) (= b^0 b^post)) (= c^0 c^post)) (= f^0 f^post)) (= g^0 g^post)) (= i^0 i^post)) (= iter^0 iter^post)) (= k^0 k^post)) (= l^0 l^post)) (= m^0 m^post)) (= n^0 n^post)) (= p^0 p^post)) (= r^0 r^post)) (= s^0 s^post)) (= tmp___2^0 tmp___2^post)) (= tmp___3^0 tmp___3^post)) (= tmp___4^0 tmp___4^post)) (= tmp___5^0 tmp___5^post)))
    (cfg_trans2 pc^0 l24 pc^post l26 (and (and (and (and (and (and (and (and (and (and (and (and (and (and (and (and (and (and (and (and (and (= __const_30^0 __const_30^post) (= b^0 b^post)) (= c^0 c^post)) (= dd^0 dd^post)) (= f^0 f^post)) (= g^0 g^post)) (= i^0 i^post)) (= iter^0 iter^post)) (= k^0 k^post)) (= l^0 l^post)) (= m^0 m^post)) (= n^0 n^post)) (= p^0 p^post)) (= r^0 r^post)) (= s^0 s^post)) (= tmp^0 tmp^post)) (= tmp___0^0 tmp___0^post)) (= tmp___1^0 tmp___1^post)) (= tmp___2^0 tmp___2^post)) (= tmp___3^0 tmp___3^post)) (= tmp___4^0 tmp___4^post)) (= tmp___5^0 tmp___5^post)))
    (cfg_trans2 pc^0 l3 pc^post l24 (and (and (and (and (and (and (and (and (and (and (and (and (and (and (and (and (and (and (and (and (and (= __const_30^0 __const_30^post) (= b^0 b^post)) (= c^0 c^post)) (= dd^0 dd^post)) (= f^0 f^post)) (= g^0 g^post)) (= i^0 i^post)) (= iter^0 iter^post)) (= k^0 k^post)) (= l^0 l^post)) (= m^0 m^post)) (= n^0 n^post)) (= p^0 p^post)) (= r^0 r^post)) (= s^0 s^post)) (= tmp^0 tmp^post)) (= tmp___0^0 tmp___0^post)) (= tmp___1^0 tmp___1^post)) (= tmp___2^0 tmp___2^post)) (= tmp___3^0 tmp___3^post)) (= tmp___4^0 tmp___4^post)) (= tmp___5^0 tmp___5^post)))
    (cfg_trans2 pc^0 l1 pc^post l27 (and (and (and (and (and (and (and (and (and (and (and (and (and (and (and (and (and (and (and (and (and (and (<= (+ 1 n^0) (+ 0 l^0)) (= __const_30^0 __const_30^post)) (= b^0 b^post)) (= c^0 c^post)) (= dd^0 dd^post)) (= f^0 f^post)) (= g^0 g^post)) (= i^0 i^post)) (= iter^0 iter^post)) (= k^0 k^post)) (= l^0 l^post)) (= m^0 m^post)) (= n^0 n^post)) (= p^0 p^post)) (= r^0 r^post)) (= s^0 s^post)) (= tmp^0 tmp^post)) (= tmp___0^0 tmp___0^post)) (= tmp___1^0 tmp___1^post)) (= tmp___2^0 tmp___2^post)) (= tmp___3^0 tmp___3^post)) (= tmp___4^0 tmp___4^post)) (= tmp___5^0 tmp___5^post)))
    (cfg_trans2 pc^0 l1 pc^post l3 (and (and (and (and (and (and (and (and (and (and (and (and (and (and (and (and (and (and (and (and (and (and (<= (+ 0 l^0) (+ 0 n^0)) (= iter^post 0)) (= __const_30^0 __const_30^post)) (= b^0 b^post)) (= c^0 c^post)) (= dd^0 dd^post)) (= f^0 f^post)) (= g^0 g^post)) (= i^0 i^post)) (= k^0 k^post)) (= l^0 l^post)) (= m^0 m^post)) (= n^0 n^post)) (= p^0 p^post)) (= r^0 r^post)) (= s^0 s^post)) (= tmp^0 tmp^post)) (= tmp___0^0 tmp___0^post)) (= tmp___1^0 tmp___1^post)) (= tmp___2^0 tmp___2^post)) (= tmp___3^0 tmp___3^post)) (= tmp___4^0 tmp___4^post)) (= tmp___5^0 tmp___5^post)))
    (cfg_trans2 pc^0 l28 pc^post l18 (and (and (and (and (and (and (and (and (and (and (and (and (and (and (and (and (and (and (and (and (and (= __const_30^0 __const_30^post) (= b^0 b^post)) (= c^0 c^post)) (= dd^0 dd^post)) (= f^0 f^post)) (= g^0 g^post)) (= i^0 i^post)) (= iter^0 iter^post)) (= k^0 k^post)) (= l^0 l^post)) (= m^0 m^post)) (= n^0 n^post)) (= p^0 p^post)) (= r^0 r^post)) (= s^0 s^post)) (= tmp^0 tmp^post)) (= tmp___0^0 tmp___0^post)) (= tmp___1^0 tmp___1^post)) (= tmp___2^0 tmp___2^post)) (= tmp___3^0 tmp___3^post)) (= tmp___4^0 tmp___4^post)) (= tmp___5^0 tmp___5^post)))
  )
)
